p cnf 75 556

c ossz oszlop
1 6 11 16 21 0
-1 -6  0
-1 -11  0
-1 -16  0
-1 -21  0
-6 -11  0
-6 -16  0
-6 -21  0
-11 -16  0
-11 -21  0
-16 -21  0
2 7 12 17 22 0
-2 -7  0
-2 -12  0
-2 -17  0
-2 -22  0
-7 -12  0
-7 -17  0
-7 -22  0
-12 -17  0
-12 -22  0
-17 -22  0
3 8 13 18 23 0
-3 -8  0
-3 -13  0
-3 -18  0
-3 -23  0
-8 -13  0
-8 -18  0
-8 -23  0
-13 -18  0
-13 -23  0
-18 -23  0
4 9 14 19 24 0
-4 -9  0
-4 -14  0
-4 -19  0
-4 -24  0
-9 -14  0
-9 -19  0
-9 -24  0
-14 -19  0
-14 -24  0
-19 -24  0
5 10 15 20 25 0
-5 -10  0
-5 -15  0
-5 -20  0
-5 -25  0
-10 -15  0
-10 -20  0
-10 -25  0
-15 -20  0
-15 -25  0
-20 -25  0
26 31 36 41 46 0
-26 -31  0
-26 -36  0
-26 -41  0
-26 -46  0
-31 -36  0
-31 -41  0
-31 -46  0
-36 -41  0
-36 -46  0
-41 -46  0
27 32 37 42 47 0
-27 -32  0
-27 -37  0
-27 -42  0
-27 -47  0
-32 -37  0
-32 -42  0
-32 -47  0
-37 -42  0
-37 -47  0
-42 -47  0
28 33 38 43 48 0
-28 -33  0
-28 -38  0
-28 -43  0
-28 -48  0
-33 -38  0
-33 -43  0
-33 -48  0
-38 -43  0
-38 -48  0
-43 -48  0
29 34 39 44 49 0
-29 -34  0
-29 -39  0
-29 -44  0
-29 -49  0
-34 -39  0
-34 -44  0
-34 -49  0
-39 -44  0
-39 -49  0
-44 -49  0
30 35 40 45 50 0
-30 -35  0
-30 -40  0
-30 -45  0
-30 -50  0
-35 -40  0
-35 -45  0
-35 -50  0
-40 -45  0
-40 -50  0
-45 -50  0
51 56 61 66 71 0
-51 -56  0
-51 -61  0
-51 -66  0
-51 -71  0
-56 -61  0
-56 -66  0
-56 -71  0
-61 -66  0
-61 -71  0
-66 -71  0
52 57 62 67 72 0
-52 -57  0
-52 -62  0
-52 -67  0
-52 -72  0
-57 -62  0
-57 -67  0
-57 -72  0
-62 -67  0
-62 -72  0
-67 -72  0
53 58 63 68 73 0
-53 -58  0
-53 -63  0
-53 -68  0
-53 -73  0
-58 -63  0
-58 -68  0
-58 -73  0
-63 -68  0
-63 -73  0
-68 -73  0
54 59 64 69 74 0
-54 -59  0
-54 -64  0
-54 -69  0
-54 -74  0
-59 -64  0
-59 -69  0
-59 -74  0
-64 -69  0
-64 -74  0
-69 -74  0
55 60 65 70 75 0
-55 -60  0
-55 -65  0
-55 -70  0
-55 -75  0
-60 -65  0
-60 -70  0
-60 -75  0
-65 -70  0
-65 -75  0
-70 -75  0

c ossz sor
1 2 3 4 5 0
-1 -2  0
-1 -3  0
-1 -4  0
-1 -5  0
-2 -3  0
-2 -4  0
-2 -5  0
-3 -4  0
-3 -5  0
-4 -5  0
6 7 8 9 10 0
-6 -7  0
-6 -8  0
-6 -9  0
-6 -10  0
-7 -8  0
-7 -9  0
-7 -10  0
-8 -9  0
-8 -10  0
-9 -10  0
11 12 13 14 15 0
-11 -12  0
-11 -13  0
-11 -14  0
-11 -15  0
-12 -13  0
-12 -14  0
-12 -15  0
-13 -14  0
-13 -15  0
-14 -15  0
16 17 18 19 20 0
-16 -17  0
-16 -18  0
-16 -19  0
-16 -20  0
-17 -18  0
-17 -19  0
-17 -20  0
-18 -19  0
-18 -20  0
-19 -20  0
21 22 23 24 25 0
-21 -22  0
-21 -23  0
-21 -24  0
-21 -25  0
-22 -23  0
-22 -24  0
-22 -25  0
-23 -24  0
-23 -25  0
-24 -25  0
26 27 28 29 30 0
-26 -27  0
-26 -28  0
-26 -29  0
-26 -30  0
-27 -28  0
-27 -29  0
-27 -30  0
-28 -29  0
-28 -30  0
-29 -30  0
31 32 33 34 35 0
-31 -32  0
-31 -33  0
-31 -34  0
-31 -35  0
-32 -33  0
-32 -34  0
-32 -35  0
-33 -34  0
-33 -35  0
-34 -35  0
36 37 38 39 40 0
-36 -37  0
-36 -38  0
-36 -39  0
-36 -40  0
-37 -38  0
-37 -39  0
-37 -40  0
-38 -39  0
-38 -40  0
-39 -40  0
41 42 43 44 45 0
-41 -42  0
-41 -43  0
-41 -44  0
-41 -45  0
-42 -43  0
-42 -44  0
-42 -45  0
-43 -44  0
-43 -45  0
-44 -45  0
46 47 48 49 50 0
-46 -47  0
-46 -48  0
-46 -49  0
-46 -50  0
-47 -48  0
-47 -49  0
-47 -50  0
-48 -49  0
-48 -50  0
-49 -50  0
51 52 53 54 55 0
-51 -52  0
-51 -53  0
-51 -54  0
-51 -55  0
-52 -53  0
-52 -54  0
-52 -55  0
-53 -54  0
-53 -55  0
-54 -55  0
56 57 58 59 60 0
-56 -57  0
-56 -58  0
-56 -59  0
-56 -60  0
-57 -58  0
-57 -59  0
-57 -60  0
-58 -59  0
-58 -60  0
-59 -60  0
61 62 63 64 65 0
-61 -62  0
-61 -63  0
-61 -64  0
-61 -65  0
-62 -63  0
-62 -64  0
-62 -65  0
-63 -64  0
-63 -65  0
-64 -65  0
66 67 68 69 70 0
-66 -67  0
-66 -68  0
-66 -69  0
-66 -70  0
-67 -68  0
-67 -69  0
-67 -70  0
-68 -69  0
-68 -70  0
-69 -70  0
71 72 73 74 75 0
-71 -72  0
-71 -73  0
-71 -74  0
-71 -75  0
-72 -73  0
-72 -74  0
-72 -75  0
-73 -74  0
-73 -75  0
-74 -75  0



c telepi utca <> nem permetezes
-46 -16 0
-47 -17 0
-48 -18 0
-49 -19 0
-50 -20 0

c telepi utca neve hosszabb mint malna utca, malna utca neve rovidebb mint a telepi utcae
c berkes nem malna
-51 -36 0
-52 -37 0
-53 -38 0
-54 -39 0
-55 -40 0
c deri nem telepi
-56 -46 0
-57 -47 0
-58 -48 0
-59 -49 0
-60 -50 0
c paszti nem malna
-71 -36 0
-72 -37 0
-73 -38 0
-74 -39 0
-75 -40 0
c feher malna -> nem telepi nem karda
-61 -36 -46 -66 0
-61 -36 -47 -67 0
-61 -36 -48 -68 0
-61 -36 -49 -69 0
-61 -36 -50 -70 0
-62 -37 -46 -66 0
-62 -37 -47 -67 0
-62 -37 -48 -68 0
-62 -37 -49 -69 0
-62 -37 -50 -70 0
-63 -38 -46 -66 0
-63 -38 -47 -67 0
-63 -38 -48 -68 0
-63 -38 -49 -69 0
-63 -38 -50 -70 0
-64 -39 -46 -66 0
-64 -39 -47 -67 0
-64 -39 -48 -68 0
-64 -39 -49 -69 0
-64 -39 -50 -70 0
-65 -40 -46 -66 0
-65 -40 -47 -67 0
-65 -40 -48 -68 0
-65 -40 -49 -69 0
-65 -40 -50 -70 0
c karda malna -> nem telepi nem feher 
-66 -36 -46 -61 0
-66 -36 -47 -62 0
-66 -36 -48 -63 0
-66 -36 -49 -64 0
-66 -36 -50 -65 0
-67 -37 -46 -61 0
-67 -37 -47 -62 0
-67 -37 -48 -63 0
-67 -37 -49 -64 0
-67 -37 -50 -65 0
-68 -38 -46 -61 0
-68 -38 -47 -62 0
-68 -38 -48 -63 0
-68 -38 -49 -64 0
-68 -38 -50 -65 0
-69 -39 -46 -61 0
-69 -39 -47 -62 0
-69 -39 -48 -63 0
-69 -39 -49 -64 0
-69 -39 -50 -65 0
-70 -40 -46 -61 0
-70 -40 -47 -62 0
-70 -40 -48 -63 0
-70 -40 -49 -64 0
-70 -40 -50 -65 0


c paszti szerda -> nem jenei utca
73 0
-33 0

c deri rozsika utca de nem hetfo
-56 0
-41 0
-57 42 0
-58 43 0
-59 44 0
-60 45 0
-42 57 0
-43 58 0
-44 59 0
-45 60 0


c feher hetfo -> kedd nap kerites
-61 7 0
-62 8 0
-63 9 0
-64 10 0
-65 0

c hetfo mosogep
11 0

c berkes teto -> 2 nappal kesobb bukta utca
-51 -21 28 0
-52 -22 29 0
-53 -23 30 0
-51 21 0
-52 22 0
-53 23 0
-21 51 0
-22 52 0
-23 53 0
-54 0
-55 0
-24 0
-25 0

c karda -> nem eresz
-66 -1 0
-67 -2 0
-68 -3 0
-69 -4 0
-70 -5 0


